QPLIB_1437
QCQ
minimize
50 # number of variables
11 # number of constraints
1219 # number of quadratic terms in objective
1 1 -0.18
2 1 0.56
3 1 0.28
4 1 0.2
5 1 -0.16
6 1 -0.2
7 1 0.56
8 1 0.4
9 1 0.08
10 1 0.28
11 1 -0.48
12 1 -0.08
13 1 0.44
14 1 -0.16
15 1 -0.16
16 1 0.2
17 1 0.4
18 1 -0.24
19 1 -0.08
20 1 0.12
22 1 -0.2
23 1 -0.6
24 1 0.8
25 1 -0.08
26 1 0.32
27 1 -0.68
28 1 0.12
29 1 -0.16
30 1 0.04
31 1 -0.04
32 1 0.16
33 1 0.4
34 1 -0.04
35 1 -0.36
36 1 -0.36
37 1 0.32
38 1 0.04
39 1 -0.04
40 1 -0.52
41 1 0.04
42 1 0.44
43 1 -0.32
44 1 -0.4
45 1 -0.04
46 1 0.76
49 1 -0.28
50 1 0.08
2 2 -0.22
3 2 0.24
4 2 -0.6
5 2 -0.04
6 2 -0.32
8 2 0.12
9 2 0.32
10 2 -0.16
11 2 -0.68
12 2 0.32
13 2 0.36
14 2 0.2
15 2 0.2
17 2 -0.76
18 2 -0.08
19 2 0.52
20 2 0.16
21 2 0.44
22 2 -0.32
23 2 0.28
24 2 0.2
25 2 -0.08
26 2 0.08
27 2 0.12
28 2 -0.16
29 2 -0.12
30 2 -0.32
31 2 0.28
32 2 -0.12
33 2 0.64
34 2 0.16
35 2 -0.64
36 2 -0.52
37 2 -0.2
38 2 -0.08
39 2 -0.44
40 2 0.8
41 2 0.44
42 2 -0.2
43 2 0.52
44 2 -0.24
45 2 0.56
46 2 0.12
47 2 0.44
48 2 0.04
49 2 -0.36
50 2 0.32
3 3 -0.42
4 3 -0.2
5 3 0.04
6 3 -0.08
7 3 0.56
8 3 -0.12
9 3 -0.32
10 3 0.16
11 3 -0.28
12 3 -0.36
13 3 -0.04
14 3 0.28
15 3 0.2
16 3 0.44
17 3 0.56
18 3 0.44
19 3 0.32
20 3 -0.08
21 3 0.08
22 3 -0.12
23 3 -0.16
24 3 -0.16
25 3 0.28
26 3 -0.24
27 3 0.28
28 3 -0.16
29 3 0.12
30 3 0.04
31 3 0.36
32 3 -0.04
33 3 -0.6
34 3 -0.04
35 3 -0.2
36 3 0.16
37 3 -0.08
38 3 0.2
39 3 0.44
40 3 -0.2
41 3 0.68
42 3 0.44
43 3 0.12
44 3 -0.12
45 3 -0.6
46 3 -0.92
47 3 0.16
48 3 0.48
49 3 -0.28
50 3 -0.64
4 4 0.46
5 4 0.04
6 4 0.2
7 4 0.08
8 4 0.16
9 4 -0.04
11 4 -0.12
12 4 0.44
13 4 0.48
14 4 -0.16
15 4 0.08
16 4 -0.08
18 4 0.52
19 4 0.04
20 4 -0.24
21 4 -0.56
22 4 -0.44
23 4 0.36
24 4 0.04
25 4 -0.12
26 4 0.04
27 4 0.44
28 4 -0.04
29 4 -0.2
30 4 -0.28
31 4 -0.08
32 4 0.2
33 4 -0.2
34 4 -0.2
35 4 0.08
36 4 0.24
37 4 -0.08
38 4 -0.92
39 4 0.24
40 4 0.68
41 4 0.52
42 4 0.24
44 4 -0.76
45 4 0.44
46 4 0.2
47 4 -0.24
48 4 -0.32
49 4 0.08
50 4 0.48
5 5 -0.22
6 5 0.36
7 5 -0.6
8 5 0.44
9 5 0.08
10 5 0.08
11 5 0.16
12 5 -0.04
13 5 0.2
14 5 0.08
15 5 0.16
17 5 -0.44
18 5 0.04
19 5 0.36
20 5 0.4
21 5 0.2
22 5 -0.24
23 5 0.64
24 5 -0.32
25 5 0.28
26 5 -0.16
27 5 0.2
28 5 0.04
29 5 0.2
30 5 0.2
31 5 -0.48
32 5 -0.32
33 5 0.12
34 5 -0.28
35 5 -0.16
36 5 -0.32
37 5 0.4
38 5 -0.08
39 5 0.52
40 5 -0.4
41 5 0.12
42 5 0.72
43 5 0.4
44 5 0.2
45 5 -0.36
46 5 -0.08
47 5 -0.16
48 5 0.04
49 5 -0.2
50 5 -0.08
6 6 0.34
7 6 0.08
8 6 -0.28
9 6 0.32
10 6 -0.04
11 6 -0.36
12 6 -0.36
13 6 -0.36
14 6 -0.48
15 6 0.68
16 6 0.4
17 6 -0.12
18 6 0.04
19 6 0.08
20 6 0.52
21 6 -0.32
22 6 0.6
23 6 0.12
24 6 0.32
25 6 -0.24
26 6 0.2
27 6 -0.04
28 6 0.16
29 6 0.56
30 6 0.28
31 6 0.56
32 6 -0.6
33 6 -0.2
34 6 0.32
35 6 -0.2
36 6 -0.28
37 6 -0.04
38 6 -0.2
39 6 -0.4
41 6 -0.16
42 6 0.08
43 6 -0.28
44 6 -0.12
45 6 -0.24
46 6 -0.2
47 6 0.48
48 6 -0.36
49 6 0.16
50 6 0.44
7 7 -0.28
8 7 0.04
9 7 0.84
10 7 0.2
11 7 0.24
12 7 -0.28
13 7 0.08
14 7 -0.32
15 7 -0.04
16 7 -0.2
17 7 0.4
19 7 -0.08
20 7 0.08
21 7 -0.16
22 7 -0.24
23 7 0.04
24 7 -0.2
25 7 1.04
26 7 0.12
27 7 -0.24
28 7 -0.28
29 7 -0.2
30 7 0.24
31 7 -0.36
32 7 -0.04
33 7 -0.52
34 7 0.12
36 7 -0.12
37 7 0.04
38 7 0.2
39 7 0.12
40 7 0.08
41 7 0.16
42 7 -0.12
43 7 -0.16
44 7 -0.4
45 7 0.28
46 7 0.32
47 7 0.12
48 7 0.12
50 7 -0.08
8 8 0.04
9 8 0.36
10 8 0.2
11 8 -0.04
12 8 -0.6
13 8 -0.16
14 8 0.2
15 8 0.36
16 8 0.12
17 8 -0.68
18 8 -0.16
19 8 0.56
20 8 0.2
21 8 -0.28
22 8 0.24
23 8 -0.08
24 8 0.24
25 8 0.48
26 8 0.64
27 8 -0.04
28 8 0.32
29 8 -0.48
30 8 0.08
31 8 -0.4
32 8 0.16
33 8 0.32
34 8 0.08
35 8 -0.08
36 8 0.36
37 8 -0.36
38 8 0.2
39 8 0.28
40 8 0.32
41 8 -0.52
42 8 -0.72
43 8 -0.52
44 8 -0.32
45 8 0.16
46 8 0.2
47 8 -0.08
48 8 0.36
49 8 0.04
50 8 -0.32
9 9 -0.04
10 9 -0.28
11 9 -0.04
12 9 -0.28
13 9 -0.24
14 9 0.16
15 9 0.04
16 9 -1.0
17 9 0.16
18 9 -0.56
19 9 -0.08
20 9 -0.52
21 9 0.2
22 9 0.24
23 9 0.4
24 9 0.08
25 9 -0.12
26 9 0.32
27 9 -0.08
28 9 0.12
30 9 -0.28
31 9 0.52
32 9 0.32
33 9 -0.04
34 9 0.24
35 9 0.76
36 9 -0.4
37 9 -0.04
38 9 0.28
39 9 -0.4
40 9 -0.56
41 9 0.08
42 9 0.44
43 9 0.12
44 9 0.56
46 9 -0.04
47 9 0.12
48 9 -0.24
49 9 -0.32
50 9 0.24
10 10 0.12
11 10 0.08
12 10 0.08
13 10 -0.12
14 10 0.32
16 10 0.36
17 10 0.04
18 10 0.12
19 10 0.48
20 10 0.4
21 10 0.12
22 10 0.32
23 10 0.16
24 10 -1.0
25 10 0.16
26 10 -0.48
27 10 0.12
29 10 -0.28
30 10 -0.12
31 10 -0.16
32 10 0.4
33 10 0.28
34 10 0.36
35 10 -0.44
36 10 0.2
37 10 -0.52
38 10 0.64
39 10 -0.08
40 10 0.04
41 10 -0.08
42 10 -0.72
43 10 0.12
44 10 -0.04
45 10 -0.08
46 10 -0.12
47 10 0.48
48 10 0.04
49 10 -0.68
50 10 0.32
11 11 -0.18
12 11 -0.32
13 11 0.16
14 11 0.12
15 11 -0.24
16 11 -0.48
17 11 -0.36
18 11 -0.36
19 11 0.4
20 11 -0.4
21 11 -0.12
22 11 0.32
23 11 0.48
24 11 0.36
25 11 0.08
26 11 0.8
27 11 -0.28
28 11 -0.2
29 11 -0.28
30 11 0.16
31 11 0.44
32 11 0.36
33 11 -0.04
34 11 0.56
35 11 0.24
36 11 -0.16
37 11 -0.4
38 11 -0.56
39 11 -0.4
40 11 0.56
41 11 -0.04
42 11 0.2
43 11 -0.16
44 11 0.96
45 11 0.4
46 11 -0.24
47 11 0.28
48 11 0.48
49 11 0.28
50 11 -0.2
12 12 -0.24
13 12 0.36
14 12 -0.48
15 12 0.12
16 12 -0.36
17 12 -0.04
18 12 -0.2
19 12 -0.04
20 12 -0.04
21 12 0.16
22 12 -0.48
23 12 0.16
24 12 0.08
25 12 0.08
26 12 -0.2
27 12 0.2
28 12 -0.64
29 12 0.36
30 12 0.6
31 12 0.04
32 12 0.4
33 12 0.32
34 12 0.08
35 12 -0.32
36 12 0.76
37 12 -0.12
38 12 0.24
39 12 -0.28
40 12 -0.08
41 12 0.2
42 12 0.32
43 12 -0.08
44 12 0.04
46 12 -0.32
48 12 0.12
49 12 0.36
50 12 -0.2
13 13 -0.04
14 13 0.68
15 13 0.56
16 13 0.08
17 13 0.36
18 13 0.24
19 13 0.12
20 13 -0.8
21 13 0.56
23 13 -0.32
24 13 -0.24
25 13 0.56
27 13 -0.76
28 13 -0.36
29 13 0.04
30 13 0.08
31 13 0.04
32 13 0.24
33 13 -0.36
34 13 0.12
35 13 -0.04
36 13 -0.04
37 13 0.2
38 13 0.6
39 13 -0.64
40 13 -0.64
41 13 0.08
42 13 0.2
43 13 -0.28
44 13 -0.12
45 13 -0.08
46 13 -0.32
47 13 0.28
49 13 -0.04
50 13 0.96
14 14 -0.02
16 14 0.4
17 14 -0.52
18 14 0.16
19 14 -0.04
20 14 -0.24
21 14 0.6
22 14 0.24
23 14 -0.56
24 14 -0.32
25 14 -0.44
26 14 0.16
27 14 0.24
28 14 0.4
29 14 -0.36
30 14 -0.28
31 14 -0.36
32 14 0.12
33 14 -0.12
34 14 -0.44
35 14 0.56
36 14 -0.24
37 14 0.08
38 14 0.2
39 14 0.24
40 14 0.4
41 14 0.08
42 14 0.08
43 14 -0.16
44 14 0.4
45 14 -0.4
46 14 0.12
47 14 -0.08
48 14 0.4
49 14 0.24
50 14 -0.04
15 15 0.26
16 15 -0.24
17 15 0.12
18 15 -0.4
19 15 -0.56
20 15 -0.04
21 15 -0.2
22 15 0.12
23 15 0.36
24 15 -0.08
25 15 0.04
26 15 0.16
27 15 0.4
28 15 -0.52
29 15 -0.44
31 15 -0.08
32 15 0.24
33 15 0.24
34 15 -0.24
35 15 0.12
36 15 -0.28
37 15 0.08
38 15 -0.08
39 15 -0.04
40 15 -0.04
41 15 0.4
42 15 -0.56
43 15 0.44
44 15 0.36
45 15 -0.6
46 15 0.12
47 15 0.2
48 15 -0.08
49 15 0.4
50 15 -0.52
17 16 0.24
18 16 0.4
19 16 -0.32
20 16 -0.12
21 16 -0.12
22 16 0.32
23 16 -0.04
24 16 -0.04
25 16 0.24
26 16 0.44
27 16 0.08
28 16 0.64
29 16 -0.04
30 16 -0.6
31 16 0.12
32 16 -0.44
33 16 0.32
34 16 -0.32
35 16 -0.28
36 16 0.4
37 16 -0.16
38 16 0.24
39 16 -0.4
41 16 0.16
42 16 -0.36
43 16 -0.2
44 16 0.64
45 16 0.08
47 16 0.2
48 16 -0.04
49 16 0.16
50 16 0.44
17 17 0.3
18 17 0.32
19 17 -0.08
20 17 -0.12
21 17 -0.16
22 17 -0.4
23 17 -0.48
24 17 -0.04
25 17 0.28
26 17 0.32
27 17 0.32
28 17 -0.52
29 17 -0.2
30 17 -0.2
31 17 0.32
32 17 -0.2
33 17 0.24
34 17 -0.28
35 17 0.04
36 17 -0.32
37 17 0.6
38 17 -0.2
39 17 0.12
40 17 -0.24
41 17 0.16
42 17 0.6
43 17 -0.24
44 17 0.4
45 17 -0.04
46 17 -0.48
47 17 0.36
48 17 0.68
49 17 -0.2
50 17 0.24
18 18 -0.28
19 18 -0.16
20 18 0.24
21 18 0.24
22 18 0.08
23 18 0.24
24 18 0.56
25 18 -0.2
27 18 -0.08
28 18 0.6
29 18 -0.52
30 18 0.4
31 18 -0.56
32 18 0.2
33 18 0.08
34 18 0.64
35 18 0.12
36 18 0.2
37 18 -0.24
38 18 0.16
39 18 -0.24
40 18 -0.12
41 18 0.24
42 18 0.28
43 18 0.76
44 18 -0.24
45 18 -0.16
46 18 -0.4
47 18 0.32
48 18 -0.16
50 18 -0.44
19 19 0.08
20 19 -1.16
21 19 -0.16
22 19 -0.2
23 19 -0.84
24 19 0.12
25 19 0.24
26 19 0.2
27 19 0.36
28 19 -0.2
29 19 0.76
30 19 -0.16
31 19 0.12
32 19 -0.44
33 19 0.16
34 19 0.4
35 19 0.32
36 19 -0.16
37 19 -0.28
38 19 -0.2
39 19 0.72
40 19 0.08
41 19 -0.36
42 19 -0.16
43 19 -0.04
44 19 0.16
45 19 0.16
46 19 0.28
47 19 0.64
48 19 -0.16
49 19 -0.28
50 19 0.4
20 20 -0.38
21 20 -0.2
22 20 -0.4
23 20 0.04
25 20 0.04
26 20 0.32
27 20 0.32
28 20 -0.2
29 20 0.28
30 20 0.28
31 20 0.04
32 20 0.08
33 20 0.24
34 20 0.48
35 20 -0.16
36 20 0.52
37 20 0.2
38 20 0.4
39 20 -0.16
40 20 0.12
41 20 0.04
42 20 -0.08
43 20 0.32
44 20 0.68
45 20 0.12
46 20 0.32
47 20 0.04
48 20 0.24
49 20 -0.08
50 20 -0.4
21 21 -0.32
22 21 -0.2
23 21 0.4
24 21 -0.12
25 21 0.44
26 21 -0.12
28 21 -0.08
29 21 0.16
30 21 -0.2
31 21 -0.2
32 21 -0.32
33 21 0.16
34 21 0.2
35 21 -0.2
37 21 0.6
38 21 0.36
39 21 -0.2
40 21 0.12
41 21 0.08
42 21 -0.08
43 21 0.12
44 21 0.48
45 21 0.16
46 21 0.8
47 21 -0.28
48 21 0.04
49 21 0.32
50 21 -0.12
22 22 0.42
23 22 0.52
24 22 -0.4
25 22 -0.08
26 22 0.16
27 22 -0.32
28 22 -0.44
29 22 0.2
30 22 -0.08
31 22 -0.32
32 22 -0.28
33 22 -0.2
34 22 0.08
35 22 0.68
36 22 0.48
37 22 0.32
38 22 0.16
39 22 0.4
40 22 0.28
41 22 0.76
42 22 0.28
43 22 -0.84
44 22 0.12
45 22 0.36
46 22 -0.08
47 22 -0.08
49 22 -0.64
50 22 -0.12
23 23 -0.22
25 23 0.72
26 23 -0.84
27 23 0.08
28 23 0.28
29 23 0.08
31 23 0.08
32 23 -0.2
33 23 -0.32
34 23 -0.2
35 23 -0.24
36 23 0.08
37 23 -0.52
38 23 0.12
39 23 -0.44
40 23 -0.24
41 23 -0.12
42 23 0.48
43 23 0.36
44 23 0.52
45 23 0.08
46 23 0.08
47 23 -0.32
48 23 -0.08
49 23 0.44
50 23 0.08
24 24 0.24
25 24 0.2
26 24 0.28
27 24 0.2
28 24 -0.04
29 24 0.32
30 24 0.28
31 24 -0.36
32 24 -0.52
33 24 -0.24
34 24 -0.08
35 24 -0.64
36 24 -0.12
37 24 -0.2
38 24 0.52
39 24 0.16
40 24 0.64
41 24 -0.24
42 24 0.2
43 24 0.12
44 24 -0.4
45 24 0.24
46 24 -0.16
47 24 -0.24
49 24 0.88
50 24 0.12
25 25 0.22
26 25 0.24
27 25 -0.12
28 25 0.16
29 25 0.32
30 25 -0.28
32 25 0.32
33 25 -0.24
34 25 -0.64
35 25 0.4
36 25 -0.2
37 25 0.08
38 25 -0.24
39 25 0.32
40 25 0.04
41 25 -0.2
42 25 -0.12
43 25 -0.04
44 25 -0.4
45 25 -0.24
46 25 -1.12
47 25 -0.56
48 25 0.04
49 25 -0.12
50 25 0.2
26 26 0.16
27 26 -0.36
28 26 -0.28
29 26 -0.16
30 26 -0.12
31 26 -0.16
32 26 -0.2
33 26 0.2
34 26 0.44
35 26 -0.2
36 26 -0.44
37 26 0.12
38 26 -0.44
39 26 -0.24
40 26 -0.2
41 26 0.16
42 26 0.32
43 26 0.08
44 26 -0.16
45 26 0.28
46 26 -0.44
47 26 0.28
48 26 0.24
49 26 -0.6
50 26 -0.24
27 27 0.02
28 27 -0.08
29 27 0.8
30 27 0.44
31 27 -0.32
32 27 0.04
33 27 -0.36
34 27 0.44
36 27 -0.6
37 27 0.48
38 27 -0.72
39 27 0.16
40 27 -0.16
41 27 0.12
42 27 -0.08
43 27 -0.12
44 27 0.08
45 27 0.52
46 27 -0.32
48 27 0.56
49 27 -0.32
50 27 0.12
28 28 0.06
29 28 -0.48
30 28 0.08
31 28 -0.08
32 28 -0.08
33 28 0.24
34 28 -0.12
35 28 0.2
36 28 0.6
37 28 0.12
38 28 -0.64
39 28 -0.24
40 28 0.12
41 28 0.24
42 28 0.6
43 28 0.44
44 28 -0.12
45 28 0.08
46 28 0.24
47 28 0.16
48 28 0.48
49 28 0.24
50 28 0.56
29 29 0.18
30 29 0.2
31 29 -0.16
32 29 -0.16
33 29 0.12
34 29 -0.28
36 29 0.32
37 29 -0.44
38 29 0.08
39 29 -0.04
40 29 0.52
41 29 0.32
42 29 -0.2
43 29 -0.36
44 29 0.04
45 29 0.08
47 29 -0.44
48 29 -0.16
49 29 -0.28
50 29 0.4
30 30 0.14
31 30 -0.4
32 30 0.84
33 30 0.44
34 30 0.24
35 30 0.32
36 30 -0.16
37 30 0.12
38 30 -0.04
39 30 -0.12
40 30 0.08
42 30 -0.28
43 30 -0.24
44 30 0.2
45 30 -0.24
47 30 -0.6
49 30 -0.04
50 30 0.24
31 31 0.26
33 31 -0.36
34 31 0.8
35 31 0.68
36 31 0.24
37 31 0.72
38 31 -0.6
39 31 0.16
40 31 0.48
41 31 0.2
43 31 0.16
44 31 0.08
45 31 -0.64
46 31 0.64
47 31 -0.36
48 31 0.12
49 31 0.4
50 31 -0.16
32 32 -0.3
33 32 -0.48
34 32 0.4
35 32 0.08
36 32 -0.08
37 32 -0.16
38 32 0.08
39 32 0.32
40 32 0.48
41 32 -0.08
42 32 0.04
43 32 -0.32
44 32 0.4
45 32 0.24
46 32 0.04
47 32 -0.08
48 32 0.28
49 32 0.32
50 32 0.68
33 33 0.16
34 33 -0.4
35 33 0.6
36 33 0.76
37 33 0.32
38 33 -0.28
39 33 -0.2
40 33 0.24
41 33 -0.04
42 33 0.48
43 33 0.2
44 33 0.48
45 33 0.12
46 33 -0.08
47 33 0.32
48 33 -0.28
49 33 -0.4
50 33 -0.12
34 34 0.12
35 34 -0.12
36 34 -0.08
37 34 0.52
38 34 0.08
39 34 0.16
40 34 -0.04
41 34 -0.6
42 34 0.16
44 34 -0.72
45 34 -0.44
46 34 -0.2
48 34 0.08
49 34 0.4
50 34 -0.08
35 35 0.04
36 35 1.04
37 35 0.32
38 35 0.32
39 35 -0.2
40 35 0.12
41 35 -0.44
42 35 -0.56
43 35 0.04
44 35 -0.24
45 35 -0.16
47 35 0.56
48 35 -0.2
49 35 0.28
50 35 -0.08
36 36 -0.24
37 36 0.2
39 36 0.24
40 36 -0.08
41 36 -0.08
42 36 -0.24
43 36 -0.08
45 36 0.6
46 36 0.4
47 36 -0.08
48 36 0.28
49 36 0.04
37 37 0.58
38 37 -0.24
39 37 -0.28
40 37 0.12
41 37 -0.4
42 37 -0.28
43 37 -0.6
44 37 -0.8
45 37 -0.12
46 37 -0.32
47 37 0.08
48 37 0.4
49 37 -0.32
50 37 -0.32
38 38 0.1
39 38 0.12
40 38 -0.08
41 38 0.16
42 38 0.24
43 38 -0.2
45 38 -0.32
46 38 0.4
47 38 0.24
48 38 0.2
49 38 0.36
50 38 -0.08
39 39 0.3
40 39 0.04
41 39 -0.16
42 39 0.36
43 39 0.12
44 39 0.08
45 39 0.04
46 39 0.52
47 39 0.36
48 39 -0.08
49 39 0.2
50 39 0.16
40 40 0.36
41 40 -0.04
42 40 -0.4
43 40 0.16
45 40 -0.28
46 40 0.08
47 40 -0.88
48 40 -0.36
49 40 -0.16
50 40 0.08
41 41 0.18
42 41 -0.16
43 41 0.76
44 41 -0.24
45 41 -0.04
46 41 0.08
47 41 -0.04
48 41 -0.36
49 41 0.12
50 41 -0.32
42 42 0.14
43 42 0.4
44 42 -0.04
45 42 0.08
46 42 0.32
47 42 -0.72
48 42 -0.12
49 42 -0.16
50 42 0.04
43 43 0.08
45 43 -0.2
46 43 -0.16
47 43 0.6
48 43 -0.36
49 43 -0.16
50 43 -0.52
44 44 -0.06
45 44 -0.2
46 44 0.36
47 44 -0.08
48 44 0.24
49 44 -0.28
50 44 -0.08
45 45 0.68
46 45 -0.24
47 45 0.76
48 45 -0.12
49 45 0.4
50 45 0.08
46 46 0.1
47 46 0.04
48 46 0.56
49 46 0.4
50 46 0.12
47 47 0.1
49 47 0.24
50 47 0.28
48 48 -0.26
49 48 0.24
50 48 -0.44
49 49 0.12
50 49 -0.24
50 50 -0.22
0.21 # default value for linear coefficients in objective
49 # number of non-default linear coefficients in objective
1 0.19
2 -0.07
3 0.46
4 -0.52
5 0.02
6 0.42
7 0.9
8 0.66
9 -0.41
10 0.1
11 0.94
12 -0.8
13 -0.85
14 0.2
15 0.96
16 0.68
17 -0.65
18 -0.2
19 -0.05
20 -0.45
21 0.53
22 0.1
23 -0.52
24 0.59
25 -0.7
26 0.08
27 -0.07
28 -0.25
29 0.33
30 -0.16
31 -0.64
32 -0.1
33 -0.77
34 0.58
35 -0.73
36 -0.5
37 -0.07
38 -0.61
39 -0.04
40 -0.53
41 -0.86
42 0.1
43 -0.03
44 -0.01
45 0.56
46 -0.61
47 0.5
48 0.54
49 0.46
0.0 # objective constant
1206 # number of quadratic terms in all constraints
11 11 1 -0.46
11 11 1 0.16
11 11 1 0.16
11 11 1 -0.2
11 11 1 -0.28
11 11 1 0.28
11 11 1 -0.32
11 11 1 -0.04
11 11 1 0.64
11 11 1 0.64
11 11 1 0.36
11 11 1 -0.08
11 11 1 0.4
11 11 1 -0.52
11 11 1 0.04
11 11 1 -0.2
11 11 1 0.32
11 11 1 -0.44
11 11 1 0.16
11 11 1 0.24
11 11 1 -0.08
11 11 1 0.6
11 11 1 -0.08
11 11 1 -0.32
11 11 1 -0.08
11 11 1 -0.52
11 11 1 -0.48
11 11 1 0.28
11 11 1 0.6
11 11 1 0.32
11 11 1 -0.4
11 11 1 -0.08
11 11 1 -0.56
11 11 1 0.52
11 11 1 -0.52
11 11 1 -0.32
11 11 1 0.08
11 11 1 -0.24
11 11 1 0.08
11 11 1 0.64
11 11 1 0.48
11 11 1 -0.44
11 11 1 -0.6
11 11 1 0.16
11 11 1 0.04
11 11 1 0.48
11 11 1 -0.44
11 11 1 0.08
11 11 1 -0.36
11 11 1 0.56
11 11 1 0.04
11 11 1 0.24
11 11 1 -0.52
11 11 1 0.24
11 11 1 0.28
11 11 1 0.24
11 11 1 0.48
11 11 1 -0.12
11 11 1 0.12
11 11 1 0.56
11 11 1 -0.32
11 11 1 0.44
11 11 1 0.16
11 11 1 -0.32
11 11 1 -0.52
11 11 1 -0.64
11 11 1 -0.52
11 11 1 -0.2
11 11 1 0.16
11 11 1 0.72
11 11 1 0.16
11 11 1 0.36
11 11 1 0.08
11 11 1 0.4
11 11 1 0.48
11 11 1 -0.48
11 11 1 0.6
11 11 1 -0.32
11 11 1 -0.44
11 11 1 0.76
11 11 1 -0.24
11 11 1 -0.44
11 11 1 -0.52
11 11 1 -0.16
11 11 1 0.8
11 11 1 -0.32
11 11 1 0.04
11 11 1 0.4
11 11 1 -0.4
11 11 1 -0.16
11 11 1 -0.28
11 11 1 0.08
11 11 1 -0.08
11 11 1 0.02
11 11 1 0.28
11 11 1 -0.28
11 11 1 -0.4
11 11 1 -0.28
11 11 1 -0.12
11 11 1 -0.08
11 11 1 -0.36
11 11 1 0.2
11 11 1 0.56
11 11 1 0.2
11 11 1 -0.08
11 11 1 -0.04
11 11 1 0.56
11 11 1 0.36
11 11 1 0.28
11 11 1 -0.24
11 11 1 0.12
11 11 1 0.56
11 11 1 0.24
11 11 1 -0.12
11 11 1 -0.36
11 11 1 0.52
11 11 1 0.16
11 11 1 0.16
11 11 1 0.12
11 11 1 -0.24
11 11 1 -0.04
11 11 1 0.24
11 11 1 -0.2
11 11 1 0.12
11 11 1 0.2
11 11 1 0.36
11 11 1 0.16
11 11 1 0.56
11 11 1 0.04
11 11 1 0.4
11 11 1 -0.8
11 11 1 -0.36
11 11 1 0.08
11 11 1 -0.52
11 11 1 -0.56
11 11 1 0.64
11 11 1 -0.16
11 11 1 -0.2
11 11 1 -0.32
11 11 1 -0.4
11 11 1 0.6
11 11 1 0.42
11 11 1 -0.24
11 11 1 0.6
11 11 1 0.08
11 11 1 -0.08
11 11 1 -0.56
11 11 1 -0.16
11 11 1 0.04
11 11 1 0.12
11 11 1 -0.16
11 11 1 0.08
11 11 1 -0.2
11 11 1 -0.52
11 11 1 0.24
11 11 1 0.36
11 11 1 -0.04
11 11 1 0.16
11 11 1 0.04
11 11 1 -0.2
11 11 1 0.36
11 11 1 -0.2
11 11 1 0.16
11 11 1 -0.52
11 11 1 -0.04
11 11 1 -0.32
11 11 1 -0.16
11 11 1 0.4
11 11 1 0.16
11 11 1 0.36
11 11 1 -0.28
11 11 1 0.24
11 11 1 -0.12
11 11 1 -0.6
11 11 1 -0.24
11 11 1 0.16
11 11 1 -0.36
11 11 1 0.08
11 11 1 0.16
11 11 1 0.12
11 11 1 -0.24
11 11 1 0.4
11 11 1 0.52
11 11 1 -0.28
11 11 1 0.2
11 11 1 0.32
11 11 1 -0.06
11 11 1 0.4
11 11 1 0.08
11 11 1 0.32
11 11 1 0.08
11 11 1 -0.12
11 11 1 -0.32
11 11 1 -0.32
11 11 1 0.08
11 11 1 0.36
11 11 1 0.12
11 11 1 0.36
11 11 1 0.12
11 11 1 0.04
11 11 1 0.72
11 11 1 0.72
11 11 1 0.08
11 11 1 0.04
11 11 1 -0.16
11 11 1 -0.28
11 11 1 -0.16
11 11 1 0.16
11 11 1 0.24
11 11 1 0.24
11 11 1 0.16
11 11 1 -1.32
11 11 1 -0.04
11 11 1 0.2
11 11 1 0.36
11 11 1 -0.6
11 11 1 -0.36
11 11 1 -0.04
11 11 1 -0.28
11 11 1 0.64
11 11 1 -0.4
11 11 1 0.56
11 11 1 -0.36
11 11 1 0.2
11 11 1 -0.04
11 11 1 0.16
11 11 1 0.24
11 11 1 -0.48
11 11 1 -0.32
11 11 1 -0.28
11 11 1 0.28
11 11 1 -0.12
11 11 1 0.12
11 11 1 -0.6
11 11 1 -0.24
11 11 1 -0.08
11 11 1 0.32
11 11 1 -0.16
11 11 1 0.04
11 11 1 0.08
11 11 1 0.08
11 11 1 0.04
11 11 1 -0.24
11 11 1 0.08
11 11 1 -0.32
11 11 1 0.52
11 11 1 -0.72
11 11 1 -0.68
11 11 1 -0.4
11 11 1 -0.04
11 11 1 0.44
11 11 1 -0.24
11 11 1 -0.16
11 11 1 0.32
11 11 1 -0.04
11 11 1 0.48
11 11 1 0.32
11 11 1 0.12
11 11 1 0.64
11 11 1 0.12
11 11 1 0.16
11 11 1 -0.32
11 11 1 -0.32
11 11 1 0.4
11 11 1 0.04
11 11 1 0.08
11 11 1 0.56
11 11 1 0.64
11 11 1 0.04
11 11 1 0.12
11 11 1 0.24
11 11 1 -0.04
11 11 1 0.12
11 11 1 0.04
11 11 1 -0.04
11 11 1 0.64
11 11 1 0.16
11 11 1 -0.24
11 11 1 0.28
11 11 1 -0.44
11 11 1 -0.6
11 11 1 -0.08
11 11 1 0.76
11 11 1 -0.44
11 11 1 -0.2
11 11 1 0.36
11 11 1 -0.2
11 11 1 0.36
11 11 1 -0.24
11 11 1 -0.12
11 11 1 -0.12
11 11 1 0.16
11 11 1 -0.08
11 11 1 -0.12
11 11 1 0.44
11 11 1 -0.28
11 11 1 0.44
11 11 1 0.28
11 11 1 0.24
11 11 1 0.08
11 11 1 -0.04
11 11 1 0.04
11 11 1 -0.24
11 11 1 -0.12
11 11 1 -0.16
11 11 1 -0.16
11 11 1 0.64
11 11 1 -0.6
11 11 1 0.6
11 11 1 0.72
11 11 1 -0.24
11 11 1 0.24
11 11 1 -0.06
11 11 1 0.2
11 11 1 -0.2
11 11 1 0.84
11 11 1 0.08
11 11 1 -0.16
11 11 1 0.16
11 11 1 0.4
11 11 1 -0.4
11 11 1 -0.16
11 11 1 -0.2
11 11 1 -0.16
11 11 1 -0.24
11 11 1 0.12
11 11 1 -0.24
11 11 1 0.44
11 11 1 -0.16
11 11 1 -0.36
11 11 1 0.32
11 11 1 -0.44
11 11 1 0.48
11 11 1 -0.52
11 11 1 -0.28
11 11 1 -0.56
11 11 1 -0.64
11 11 1 0.04
11 11 1 0.24
11 11 1 0.04
11 11 1 0.44
11 11 1 0.12
11 11 1 0.04
11 11 1 -0.04
11 11 1 0.08
11 11 1 -0.24
11 11 1 0.56
11 11 1 -0.56
11 11 1 0.28
11 11 1 0.2
11 11 1 0.28
11 11 1 0.32
11 11 1 0.12
11 11 1 0.24
11 11 1 0.16
11 11 1 -0.6
11 11 1 0.36
11 11 1 0.16
11 11 1 -0.12
11 11 1 0.28
11 11 1 0.92
11 11 1 -0.6
11 11 1 -0.16
11 11 1 -0.44
11 11 1 -0.08
11 11 1 -0.56
11 11 1 -0.28
11 11 1 -0.12
11 11 1 0.12
11 11 1 -0.2
11 11 1 -0.68
11 11 1 -0.28
11 11 1 -0.24
11 11 1 0.64
11 11 1 -0.6
11 11 1 -0.08
11 11 1 0.08
11 11 1 0.16
11 11 1 -0.04
11 11 1 0.28
11 11 1 0.4
11 11 1 0.64
11 11 1 0.36
11 11 1 0.28
11 11 1 -0.04
11 11 1 0.44
11 11 1 0.12
11 11 1 -0.08
11 11 1 0.36
11 11 1 -0.12
11 11 1 -0.32
11 11 1 0.4
11 11 1 -0.72
11 11 1 0.04
11 11 1 0.2
11 11 1 0.08
11 11 1 -0.04
11 11 1 0.24
11 11 1 0.44
11 11 1 0.52
11 11 1 0.12
11 11 1 -0.48
11 11 1 -0.88
11 11 1 -0.08
11 11 1 0.92
11 11 1 -0.04
11 11 1 -0.2
11 11 1 0.44
11 11 1 0.24
11 11 1 -0.04
11 11 1 -0.2
11 11 1 0.2
11 11 1 0.12
11 11 1 0.56
11 11 1 -0.36
11 11 1 -0.28
11 11 1 -0.28
11 11 1 -0.2
11 11 1 0.04
11 11 1 0.84
11 11 1 -0.08
11 11 1 0.28
11 11 1 -0.04
11 11 1 -0.56
11 11 1 0.16
11 11 1 0.28
11 11 1 0.16
11 11 1 -0.26
11 11 1 0.04
11 11 1 0.04
11 11 1 -0.36
11 11 1 -0.24
11 11 1 0.08
11 11 1 -0.12
11 11 1 -0.44
11 11 1 -0.24
11 11 1 0.2
11 11 1 0.04
11 11 1 -0.2
11 11 1 -0.04
11 11 1 0.36
11 11 1 0.4
11 11 1 -0.36
11 11 1 0.48
11 11 1 0.52
11 11 1 0.04
11 11 1 -0.24
11 11 1 0.24
11 11 1 0.4
11 11 1 0.2
11 11 1 -0.44
11 11 1 0.2
11 11 1 0.08
11 11 1 -0.6
11 11 1 -0.6
11 11 1 0.16
11 11 1 0.16
11 11 1 0.32
11 11 1 0.28
11 11 1 -0.16
11 11 1 -0.08
11 11 1 -0.08
11 11 1 0.08
11 11 1 0.84
11 11 1 0.08
11 11 1 -0.32
11 11 1 -0.6
11 11 1 -0.04
11 11 1 -0.36
11 11 1 0.6
11 11 1 0.08
11 11 1 0.24
11 11 1 -0.04
11 11 1 0.04
11 11 1 0.08
11 11 1 0.08
11 11 1 -0.08
11 11 1 0.32
11 11 1 -0.6
11 11 1 0.56
11 11 1 0.36
11 11 1 -0.28
11 11 1 -0.76
11 11 1 0.36
11 11 1 0.48
11 11 1 0.2
11 11 1 0.16
11 11 1 -0.24
11 11 1 -0.44
11 11 1 0.12
11 11 1 -0.08
11 11 1 -0.4
11 11 1 -0.56
11 11 1 0.6
11 11 1 -0.4
11 11 1 -0.4
11 11 1 0.32
11 11 1 0.04
11 11 1 0.08
11 11 1 -0.04
11 11 1 0.04
11 11 1 -0.6
11 11 1 0.52
11 11 1 -0.2
11 11 1 0.16
11 11 1 0.36
11 11 1 -0.56
11 11 1 -0.12
11 11 1 -0.04
11 11 1 0.2
11 11 1 -0.48
11 11 1 0.12
11 11 1 -0.04
11 11 1 0.24
11 11 1 0.28
11 11 1 -0.52
11 11 1 0.12
11 11 1 0.36
11 11 1 -0.36
11 11 1 0.28
11 11 1 0.28
11 11 1 -0.36
11 11 1 -0.12
11 11 1 -0.48
11 11 1 0.04
11 11 1 -0.16
11 11 1 -0.28
11 11 1 0.04
11 11 1 -0.08
11 11 1 0.24
11 11 1 0.16
11 11 1 0.2
11 11 1 0.24
11 11 1 0.4
11 11 1 -0.04
11 11 1 -0.44
11 11 1 -0.2
11 11 1 0.12
11 11 1 0.52
11 11 1 -0.04
11 11 1 0.32
11 11 1 -0.36
11 11 1 0.04
11 11 1 0.2
11 11 1 -0.32
11 11 1 0.08
11 11 1 0.6
11 11 1 0.2
11 11 1 -0.28
11 11 1 0.24
11 11 1 0.12
11 11 1 0.04
11 11 1 0.44
11 11 1 -0.16
11 11 1 0.48
11 11 1 0.2
11 11 1 -0.16
11 11 1 -0.44
11 11 1 -0.88
11 11 1 -0.48
11 11 1 0.44
11 11 1 0.36
11 11 1 0.2
11 11 1 -0.04
11 11 1 0.76
11 11 1 -0.28
11 11 1 -0.12
11 11 1 0.08
11 11 1 -0.2
11 11 1 0.2
11 11 1 -0.08
11 11 1 -0.2
11 11 1 0.28
11 11 1 0.52
11 11 1 0.4
11 11 1 -0.46
11 11 1 -0.32
11 11 1 0.32
11 11 1 0.12
11 11 1 0.56
11 11 1 0.28
11 11 1 -0.36
11 11 1 -0.16
11 11 1 -0.36
11 11 1 0.76
11 11 1 -0.28
11 11 1 0.96
11 11 1 0.32
11 11 1 -0.28
11 11 1 -0.32
11 11 1 0.08
11 11 1 -0.44
11 11 1 0.48
11 11 1 -0.36
11 11 1 -0.32
11 11 1 -0.16
11 11 1 -0.16
11 11 1 0.56
11 11 1 -0.48
11 11 1 0.16
11 11 1 0.28
11 11 1 -0.64
11 11 1 0.48
11 11 1 -0.12
11 11 1 0.32
11 11 1 -0.2
11 11 1 0.32
11 11 1 0.24
11 11 1 0.2
11 11 1 -0.16
11 11 1 0.46
11 11 1 0.48
11 11 1 -0.28
11 11 1 -0.4
11 11 1 -0.4
11 11 1 0.8
11 11 1 0.48
11 11 1 0.04
11 11 1 0.2
11 11 1 -0.32
11 11 1 -0.76
11 11 1 -0.4
11 11 1 0.24
11 11 1 -0.04
11 11 1 -0.44
11 11 1 0.52
11 11 1 -0.12
11 11 1 0.36
11 11 1 0.12
11 11 1 0.16
11 11 1 -0.52
11 11 1 -0.24
11 11 1 -0.08
11 11 1 -0.16
11 11 1 0.28
11 11 1 -0.12
11 11 1 -0.52
11 11 1 -0.12
11 11 1 0.4
11 11 1 -0.08
11 11 1 -0.04
11 11 1 0.2
11 11 1 0.6
11 11 1 0.4
11 11 1 0.68
11 11 1 -0.28
11 11 1 0.36
11 11 1 0.48
11 11 1 -0.16
11 11 1 -0.8
11 11 1 -0.2
11 11 1 0.08
11 11 1 -0.04
11 11 1 0.2
11 11 1 0.76
11 11 1 0.96
11 11 1 0.16
11 11 1 -0.64
11 11 1 0.32
11 11 1 0.12
11 11 1 -0.48
11 11 1 -0.68
11 11 1 0.08
11 11 1 0.4
11 11 1 0.32
11 11 1 -0.28
11 11 1 0.08
11 11 1 0.12
11 11 1 -0.24
11 11 1 -1.08
11 11 1 0.04
11 11 1 0.28
11 11 1 -0.24
11 11 1 0.36
11 11 1 -0.24
11 11 1 0.52
11 11 1 -0.36
11 11 1 -0.32
11 11 1 -0.24
11 11 1 -0.2
11 11 1 -0.52
11 11 1 -0.6
11 11 1 0.28
11 11 1 -0.24
11 11 1 0.6
11 11 1 0.08
11 11 1 0.2
11 11 1 -0.2
11 11 1 0.44
11 11 1 -0.52
11 11 1 -0.16
11 11 1 0.08
11 11 1 -0.16
11 11 1 -0.2
11 11 1 0.48
11 11 1 0.32
11 11 1 0.52
11 11 1 0.04
11 11 1 0.16
11 11 1 0.36
11 11 1 -0.48
11 11 1 0.24
11 11 1 0.68
11 11 1 -0.08
11 11 1 -0.24
11 11 1 0.36
11 11 1 0.68
11 11 1 0.44
11 11 1 -0.4
11 11 1 -0.32
11 11 1 0.52
11 11 1 -0.12
11 11 1 -1.04
11 11 1 0.36
11 11 1 0.24
11 11 1 -0.32
11 11 1 0.16
11 11 1 0.36
11 11 1 -0.44
11 11 1 0.08
11 11 1 0.4
11 11 1 -0.16
11 11 1 -0.64
11 11 1 -0.12
11 11 1 -0.84
11 11 1 0.8
11 11 1 0.04
11 11 1 0.08
11 11 1 -0.4
11 11 1 -0.2
11 11 1 0.24
11 11 1 -0.36
11 11 1 0.76
11 11 1 -0.4
11 11 1 0.16
11 11 1 -0.16
11 11 1 0.48
11 11 1 -0.68
11 11 1 -0.2
11 11 1 -0.16
11 11 1 0.16
11 11 1 0.04
11 11 1 0.56
11 11 1 0.2
11 11 1 -0.12
11 11 1 -0.36
11 11 1 0.32
11 11 1 -0.08
11 11 1 0.12
11 11 1 -0.08
11 11 1 -0.2
11 11 1 0.56
11 11 1 0.36
11 11 1 0.16
11 11 1 0.08
11 11 1 0.28
11 11 1 0.12
11 11 1 0.28
11 11 1 0.08
11 11 1 0.32
11 11 1 0.12
11 11 1 1.12
11 11 1 -0.36
11 11 1 -0.6
11 11 1 -0.12
11 11 1 0.28
11 11 1 -0.52
11 11 1 -0.12
11 11 1 0.28
11 11 1 -0.44
11 11 1 0.36
11 11 1 -0.2
11 11 1 0.64
11 11 1 -0.08
11 11 1 0.32
11 11 1 0.84
11 11 1 0.24
11 11 1 -0.4
11 11 1 0.16
11 11 1 0.56
11 11 1 -0.68
11 11 1 -0.04
11 11 1 -0.16
11 11 1 -0.12
11 11 1 -0.36
11 11 1 -0.2
11 11 1 -0.2
11 11 1 0.16
11 11 1 0.24
11 11 1 -0.48
11 11 1 -0.16
11 11 1 0.08
11 11 1 -0.4
11 11 1 -0.04
11 11 1 -0.8
11 11 1 0.06
11 11 1 0.12
11 11 1 0.2
11 11 1 -0.12
11 11 1 0.24
11 11 1 -0.08
11 11 1 -0.36
11 11 1 0.16
11 11 1 0.2
11 11 1 -0.28
11 11 1 0.28
11 11 1 0.12
11 11 1 -0.36
11 11 1 0.48
11 11 1 0.2
11 11 1 0.32
11 11 1 -0.16
11 11 1 0.32
11 11 1 -0.44
11 11 1 0.2
11 11 1 0.48
11 11 1 -0.72
11 11 1 -0.12
11 11 1 -0.76
11 11 1 0.04
11 11 1 -0.4
11 11 1 0.2
11 11 1 -0.16
11 11 1 -0.04
11 11 1 -0.24
11 11 1 0.12
11 11 1 0.4
11 11 1 -0.24
11 11 1 0.32
11 11 1 0.08
11 11 1 -0.16
11 11 1 -0.16
11 11 1 -0.52
11 11 1 0.16
11 11 1 0.08
11 11 1 0.4
11 11 1 0.16
11 11 1 0.32
11 11 1 0.04
11 11 1 0.68
11 11 1 0.04
11 11 1 0.72
11 11 1 0.24
11 11 1 -0.12
11 11 1 -0.24
11 11 1 -0.12
11 11 1 0.16
11 11 1 -0.08
11 11 1 -0.32
11 11 1 0.16
11 11 1 0.12
11 11 1 -0.12
11 11 1 0.52
11 11 1 -0.36
11 11 1 0.28
11 11 1 -0.16
11 11 1 -0.28
11 11 1 0.36
11 11 1 -0.28
11 11 1 -0.56
11 11 1 -0.48
11 11 1 0.48
11 11 1 0.48
11 11 1 -0.4
11 11 1 -0.88
11 11 1 -0.04
11 11 1 0.52
11 11 1 0.72
11 11 1 0.04
11 11 1 -0.2
11 11 1 -0.36
11 11 1 -0.2
11 11 1 -0.12
11 11 1 0.12
11 11 1 0.08
11 11 1 0.24
11 11 1 -0.1
11 11 1 0.16
11 11 1 -0.4
11 11 1 0.52
11 11 1 0.68
11 11 1 -0.12
11 11 1 -0.4
11 11 1 0.32
11 11 1 -0.84
11 11 1 -0.24
11 11 1 0.04
11 11 1 -0.52
11 11 1 0.28
11 11 1 0.56
11 11 1 -0.68
11 11 1 -0.36
11 11 1 0.24
11 11 1 -0.32
11 11 1 0.16
11 11 1 -0.6
11 11 1 0.16
11 11 1 0.08
11 11 1 0.28
11 11 1 -0.04
11 11 1 -0.08
11 11 1 -0.06
11 11 1 0.32
11 11 1 0.04
11 11 1 -0.64
11 11 1 -0.44
11 11 1 0.08
11 11 1 -0.08
11 11 1 0.28
11 11 1 0.12
11 11 1 0.72
11 11 1 0.04
11 11 1 0.4
11 11 1 -0.48
11 11 1 -0.16
11 11 1 -0.08
11 11 1 -0.08
11 11 1 -0.6
11 11 1 0.24
11 11 1 -0.2
11 11 1 0.2
11 11 1 0.64
11 11 1 -0.36
11 11 1 -0.2
11 11 1 -0.24
11 11 1 0.04
11 11 1 0.04
11 11 1 0.44
11 11 1 0.16
11 11 1 0.24
11 11 1 0.36
11 11 1 -0.32
11 11 1 0.56
11 11 1 0.12
11 11 1 -0.08
11 11 1 -0.6
11 11 1 0.12
11 11 1 0.28
11 11 1 0.36
11 11 1 0.2
11 11 1 -0.12
11 11 1 -0.32
11 11 1 0.04
11 11 1 0.04
11 11 1 -0.44
11 11 1 0.4
11 11 1 0.36
11 11 1 0.24
11 11 1 -0.2
11 11 1 -0.8
11 11 1 -0.44
11 11 1 0.04
11 11 1 -0.08
11 11 1 -0.08
11 11 1 -0.04
11 11 1 0.08
11 11 1 0.08
11 11 1 0.24
11 11 1 0.24
11 11 1 -0.56
11 11 1 0.24
11 11 1 -0.12
11 11 1 0.16
11 11 1 0.04
11 11 1 0.28
11 11 1 -0.48
11 11 1 -0.32
11 11 1 -0.04
11 11 1 0.16
11 11 1 -0.3
11 11 1 0.16
11 11 1 -0.28
11 11 1 0.52
11 11 1 -0.2
11 11 1 0.4
11 11 1 -0.16
11 11 1 0.16
11 11 1 -0.24
11 11 1 0.68
11 11 1 -0.08
11 11 1 0.08
11 11 1 0.24
11 11 1 0.12
11 11 1 -0.16
11 11 1 0.12
11 11 1 -0.04
11 11 1 -0.2
11 11 1 -0.12
11 11 1 0.2
11 11 1 0.04
11 11 1 0.08
11 11 1 0.08
11 11 1 -0.16
11 11 1 0.04
11 11 1 0.44
11 11 1 -0.28
11 11 1 -0.12
11 11 1 -1.0
11 11 1 -0.16
11 11 1 -0.56
11 11 1 -0.16
11 11 1 0.32
11 11 1 -0.36
11 11 1 0.6
11 11 1 0.72
11 11 1 -0.36
11 11 1 -0.12
11 11 1 -0.18
11 11 1 0.4
11 11 1 0.04
11 11 1 0.32
11 11 1 -0.08
11 11 1 0.08
11 11 1 -0.32
11 11 1 -0.16
11 11 1 0.32
11 11 1 -0.28
11 11 1 0.32
11 11 1 0.32
11 11 1 -0.36
11 11 1 -0.12
11 11 1 0.4
11 11 1 0.48
11 11 1 -0.4
11 11 1 0.72
11 11 1 0.12
11 11 1 0.1
11 11 1 0.44
11 11 1 0.28
11 11 1 -0.32
11 11 1 0.4
11 11 1 -0.32
11 11 1 0.68
11 11 1 0.56
11 11 1 -0.6
11 11 1 0.24
11 11 1 -0.04
11 11 1 0.16
11 11 1 0.12
11 11 1 0.08
11 11 1 -0.2
11 11 1 -0.4
11 11 1 -0.08
11 11 1 -0.16
11 11 1 -0.44
11 11 1 -0.46
11 11 1 -0.28
11 11 1 0.04
11 11 1 0.32
11 11 1 0.44
11 11 1 -0.04
11 11 1 0.16
11 11 1 -0.12
11 11 1 -0.12
11 11 1 -0.4
11 11 1 -0.36
11 11 1 0.32
11 11 1 -0.24
11 11 1 0.68
11 11 1 0.2
11 11 1 -0.4
11 11 1 0.1
11 11 1 -0.16
11 11 1 0.32
11 11 1 -0.28
11 11 1 0.44
11 11 1 0.16
11 11 1 0.16
11 11 1 0.08
11 11 1 0.16
11 11 1 0.72
11 11 1 0.12
11 11 1 0.16
11 11 1 -0.08
11 11 1 0.4
11 11 1 -0.54
11 11 1 -0.32
11 11 1 0.24
11 11 1 0.16
11 11 1 0.44
11 11 1 1.0
11 11 1 -0.2
11 11 1 0.32
11 11 1 -0.4
11 11 1 0.28
11 11 1 0.28
11 11 1 0.6
11 11 1 0.04
11 11 1 -0.04
11 11 1 0.04
11 11 1 -0.1
11 11 1 -0.16
11 11 1 0.24
11 11 1 0.32
11 11 1 0.16
11 11 1 -0.16
11 11 1 -0.12
11 11 1 -0.48
11 11 1 0.52
11 11 1 0.56
11 11 1 0.12
11 11 1 -0.24
11 11 1 -0.36
11 11 1 -0.04
11 11 1 0.32
11 11 1 -0.14
11 11 1 -0.68
11 11 1 0.32
11 11 1 0.68
11 11 1 0.12
11 11 1 0.24
11 11 1 0.08
11 11 1 -0.32
11 11 1 -0.28
11 11 1 0.2
11 11 1 -0.08
11 11 1 -0.28
11 11 1 0.2
11 11 1 -0.04
11 11 1 0.34
11 11 1 0.16
11 11 1 0.24
11 11 1 0.16
11 11 1 0.44
11 11 1 0.28
11 11 1 -0.52
11 11 1 0.08
11 11 1 -0.08
11 11 1 -0.04
11 11 1 -0.32
11 11 1 -0.4
11 11 1 -0.44
11 11 1 -0.24
11 11 1 0.72
11 11 1 -0.16
11 11 1 -0.2
11 11 1 -1.0
11 11 1 -0.08
11 11 1 0.16
11 11 1 -0.08
11 11 1 0.08
11 11 1 -0.06
11 11 1 0.36
11 11 1 -0.16
11 11 1 -0.4
11 11 1 -0.12
11 11 1 0.24
11 11 1 -0.44
11 11 1 0.44
11 11 1 0.04
11 11 1 -0.32
11 11 1 0.16
11 11 1 -0.44
11 11 1 0.24
11 11 1 -0.32
11 11 1 0.32
11 11 1 -0.52
11 11 1 0.24
11 11 1 0.44
11 11 1 -0.12
11 11 1 0.04
11 11 1 0.16
11 11 1 -0.06
11 11 1 0.12
11 11 1 -0.52
11 11 1 0.28
11 11 1 0.08
11 11 1 0.16
11 11 1 0.2
11 11 1 0.16
11 11 1 0.24
11 11 1 -0.02
11 11 1 0.56
11 11 1 0.32
11 11 1 -0.12
11 11 1 -0.08
11 11 1 0.12
11 11 1 -0.52
11 11 1 -0.8
11 11 1 -0.02
11 11 1 -0.2
11 11 1 -0.08
11 11 1 -0.12
11 11 1 -0.4
11 11 1 0.28
11 11 1 0.48
11 11 1 -0.42
11 11 1 -0.48
11 11 1 -0.12
11 11 1 -0.36
11 11 1 0.2
11 11 1 -0.24
11 11 1 0.24
11 11 1 -0.2
11 11 1 -0.16
11 11 1 0.32
11 11 1 0.04
11 11 1 -0.04
11 11 1 -0.08
11 11 1 -0.2
11 11 1 0.24
11 11 1 -0.2
11 11 1 -0.32
11 11 1 0.44
11 11 1 -0.64
11 11 1 0.18
548 # number of linear terms in all constraints
1 1 0.23
1 2 -0.6
1 3 -0.71
1 4 0.1
1 5 -0.4
1 6 0.6
1 7 0.76
1 8 0.63
1 9 -0.89
1 10 -0.47
1 11 0.67
1 12 -0.95
1 13 0.07
1 14 -0.57
1 15 -0.46
1 16 -0.5
1 17 -0.74
1 18 -0.15
1 19 0.34
1 20 0.87
1 21 -0.69
1 22 0.68
1 23 -0.61
1 24 -0.63
1 25 0.45
1 26 -0.91
1 27 0.73
1 28 0.73
1 29 -0.94
1 30 -0.55
1 31 -0.5
1 32 -0.04
1 33 -0.25
1 34 0.46
1 35 0.02
1 36 -0.71
1 37 -0.38
1 38 -0.77
1 39 0.98
1 40 0.37
1 41 0.91
1 42 0.55
1 43 0.77
1 44 -0.85
1 45 0.4
1 46 0.26
1 47 -0.79
1 48 0.14
1 49 0.72
1 50 0.73
2 1 -0.36
2 2 -0.81
2 3 0.41
2 4 -0.88
2 5 -0.86
2 6 -0.94
2 7 0.47
2 8 0.65
2 9 0.16
2 10 0.37
2 11 0.85
2 12 -0.81
2 13 -0.73
2 14 0.18
2 15 0.45
2 16 -0.5
2 17 -0.66
2 18 -0.52
2 19 -0.85
2 20 0.08
2 21 0.23
2 22 0.99
2 23 -0.94
2 24 -0.93
2 25 -0.72
2 26 -0.82
2 27 0.55
2 28 -0.93
2 29 -0.62
2 30 -0.45
2 31 -0.9
2 32 0.48
2 33 0.8
2 34 0.25
2 35 -0.72
2 36 -0.64
2 37 0.5
2 38 -0.64
2 39 0.42
2 40 0.19
2 41 -0.16
2 42 0.32
2 43 0.11
2 44 0.65
2 45 0.61
2 46 0.29
2 47 -0.02
2 48 0.46
2 49 0.46
2 50 -0.59
3 1 0.11
3 2 0.26
3 3 -0.39
3 4 0.31
3 5 0.22
3 6 -0.14
3 7 -0.86
3 8 0.1
3 9 -0.09
3 10 0.17
3 11 0.09
3 12 0.2
3 13 -0.47
3 14 -0.94
3 15 -0.87
3 16 -0.71
3 17 0.26
3 18 -0.92
3 19 -0.43
3 20 -0.69
3 21 0.53
3 22 -0.18
3 23 -1.0
3 24 0.57
3 25 0.96
3 26 -0.62
3 27 0.87
3 28 -0.35
3 29 -0.59
3 30 0.34
3 31 -0.35
3 32 0.47
3 33 -0.45
3 34 -0.74
3 35 -0.71
3 36 -0.82
3 37 -0.64
3 38 -0.31
3 39 -0.76
3 40 0.84
3 41 -0.76
3 42 0.14
3 43 -0.73
3 44 0.37
3 45 -0.47
3 46 0.43
3 47 0.49
3 48 -0.61
3 49 0.39
3 50 -0.03
4 1 -0.47
4 2 -0.97
4 3 0.36
4 4 0.32
4 5 0.74
4 6 0.28
4 7 0.55
4 8 0.43
4 9 -0.48
4 10 0.51
4 11 0.75
4 12 -0.56
4 13 -0.15
4 14 0.39
4 15 0.81
4 16 0.18
4 17 0.76
4 18 0.93
4 19 0.72
4 20 -0.4
4 21 -0.48
4 22 -0.05
4 23 0.24
4 24 -0.73
4 25 -0.6
4 26 0.85
4 28 -0.85
4 29 0.88
4 30 0.54
4 31 -0.5
4 32 0.66
4 33 0.02
4 34 0.91
4 35 -0.63
4 36 0.72
4 37 -0.26
4 38 -0.43
4 39 -0.69
4 40 0.19
4 41 0.97
4 42 -0.77
4 43 0.77
4 44 0.86
4 45 0.34
4 46 0.91
4 47 0.87
4 48 0.2
4 49 -0.64
4 50 0.8
5 1 0.8
5 2 0.52
5 3 0.03
5 4 0.92
5 5 0.87
5 6 0.8
5 7 -0.69
5 8 -0.19
5 9 -0.09
5 10 0.79
5 11 0.55
5 12 -0.34
5 13 -0.84
5 14 -0.52
5 15 0.35
5 16 0.03
5 17 0.85
5 18 -0.98
5 19 -0.82
5 20 0.6
5 21 0.35
5 22 -0.96
5 23 0.04
5 24 0.27
5 25 0.15
5 26 0.44
5 27 0.36
5 28 0.85
5 29 -0.61
5 30 -0.79
5 31 -0.49
5 32 -0.58
5 33 0.61
5 34 0.84
5 35 0.51
5 36 -0.84
5 37 0.64
5 38 -0.34
5 39 0.4
5 40 0.94
5 41 -0.91
5 42 0.7
5 43 0.3
5 44 -0.24
5 45 0.38
5 46 1.0
5 47 0.08
5 48 -0.27
5 49 0.01
5 50 -0.33
6 1 -0.95
6 2 -0.98
6 3 -0.79
6 4 0.12
6 5 -0.77
6 6 -0.63
6 7 0.26
6 8 -0.19
6 9 0.29
6 10 0.57
6 11 0.74
6 12 0.41
6 13 0.08
6 14 -0.37
6 15 0.8
6 16 -0.89
6 17 0.49
6 18 -0.84
6 19 -0.64
6 20 0.05
6 21 -0.26
6 22 0.33
6 23 0.58
6 24 -0.87
6 25 0.43
6 26 0.64
6 27 -0.72
6 28 -0.95
6 29 0.57
6 30 0.78
6 31 0.08
6 32 0.51
6 33 -0.43
6 34 -0.75
6 35 -0.01
6 36 -0.41
6 37 0.23
6 38 -0.6
6 39 -0.72
6 40 -0.79
6 41 -0.87
6 42 -0.39
6 43 0.53
6 44 -0.53
6 45 -0.55
6 46 0.18
6 47 0.07
6 48 -0.95
6 49 -0.6
6 50 -0.44
7 1 -0.84
7 2 0.18
7 3 -0.6
7 4 -0.76
7 5 0.67
7 6 0.18
7 7 -0.63
7 8 -0.12
7 9 0.69
7 10 0.78
7 11 -0.78
7 12 0.62
7 13 0.4
7 14 0.95
7 15 0.73
7 16 0.43
7 17 -0.02
7 18 -0.1
7 19 0.76
7 20 0.5
7 21 0.22
7 22 0.01
7 23 -0.77
7 24 -0.71
7 25 0.9
7 26 -0.39
7 27 0.07
7 28 0.43
7 29 0.38
7 30 -0.11
7 31 0.49
7 32 -0.72
7 33 -0.35
7 34 -0.32
7 35 0.6
7 36 -0.72
7 37 0.02
7 38 -0.22
7 39 0.61
7 40 -0.86
7 41 -0.41
7 42 -0.12
7 43 0.17
7 44 0.76
7 45 1.0
7 46 0.13
7 47 0.24
7 48 -0.25
7 49 -0.48
7 50 -0.57
8 1 0.59
8 2 -0.47
8 3 -0.85
8 4 0.01
8 5 -0.91
8 6 0.11
8 7 0.98
8 8 0.27
8 9 0.6
8 10 -0.94
8 11 0.95
8 12 -0.13
8 13 0.96
8 14 0.19
8 15 0.11
8 16 0.65
8 17 0.66
8 18 -0.19
8 19 -0.55
8 20 0.63
8 21 0.48
8 22 -0.58
8 23 -0.46
8 24 -0.11
8 25 -0.32
8 26 -0.49
8 27 0.4
8 28 0.46
8 29 -0.15
8 30 -0.03
8 31 0.62
8 32 0.6
8 33 -0.52
8 34 0.38
8 35 -0.34
8 36 0.83
8 37 -0.34
8 38 -0.36
8 39 -0.74
8 40 -0.68
8 41 0.45
8 42 0.79
8 43 -0.78
8 44 -0.98
8 45 0.85
8 46 -0.07
8 47 -0.01
8 48 0.14
8 49 -0.78
8 50 -0.83
9 1 0.22
9 2 0.52
9 3 0.33
9 4 0.45
9 5 -0.42
9 6 0.42
9 7 -0.37
9 8 0.82
9 9 0.86
9 10 0.02
9 11 -0.04
9 12 0.07
9 13 -0.53
9 14 0.07
9 15 -0.49
9 16 0.91
9 17 -0.84
9 18 0.84
9 19 0.71
9 20 0.76
9 21 0.58
9 22 0.21
9 23 0.02
9 24 -0.75
9 25 0.44
9 26 -0.11
9 27 -0.61
9 28 0.4
9 29 -0.54
9 30 0.97
9 31 0.12
9 32 -0.38
9 33 -1.0
9 34 -0.37
9 35 -0.65
9 36 0.89
9 37 -0.91
9 38 -0.94
9 39 0.43
9 40 0.42
9 41 0.77
9 42 0.18
9 43 -0.69
9 44 -0.18
9 45 -0.32
9 46 0.89
9 47 -0.41
9 48 -0.82
9 49 -0.44
9 50 -0.78
10 1 -0.1
10 2 -0.92
10 3 -0.5
10 4 -0.1
10 5 -0.33
10 6 -0.56
10 7 0.18
10 8 0.59
10 9 0.7
10 10 -0.86
10 11 0.49
10 12 0.35
10 13 0.29
10 14 0.49
10 15 -0.38
10 16 0.01
10 17 0.36
10 18 -0.1
10 19 0.12
10 20 0.94
10 21 0.52
10 22 0.32
10 23 -0.74
10 24 0.27
10 25 0.67
10 26 0.24
10 27 -0.69
10 28 0.98
10 29 0.45
10 30 -0.68
10 31 -0.32
10 32 -0.01
10 33 -0.04
10 34 -0.54
10 35 -0.19
10 36 0.93
10 37 -0.09
10 38 0.69
10 39 -0.67
10 40 0.03
10 41 0.45
10 42 0.97
10 43 -0.01
10 44 0.22
10 45 0.12
10 46 -0.18
10 47 0.76
10 48 -0.89
10 49 0.41
10 50 0.3
11 1 0.59
11 2 -0.95
11 3 -0.09
11 4 -0.65
11 5 0.07
11 6 -0.35
11 7 -0.1
11 8 0.25
11 9 -0.04
11 10 -0.3
11 11 -0.27
11 12 0.8
11 13 -0.21
11 14 0.14
11 15 -0.85
11 16 0.61
11 17 0.12
11 18 -0.37
11 19 0.81
11 20 0.94
11 21 -0.5
11 22 0.23
11 23 -0.82
11 24 0.85
11 25 0.43
11 26 0.61
11 27 -0.78
11 29 0.87
11 30 -0.6
11 31 -0.45
11 32 0.02
11 33 0.81
11 34 -0.08
11 35 -0.64
11 36 -0.41
11 37 -0.08
11 38 -0.13
11 39 -0.49
11 40 0.61
11 41 -0.64
11 42 -0.9
11 43 0.73
11 44 0.5
11 45 -0.1
11 46 0.38
11 47 -0.48
11 48 -0.54
11 49 0.85
11 50 -0.12
1.79769313486232E+308 # value for infinity
-1.79769313486232E+308 # default left-hand-side value
10 # number of non-default left-hand-sides
1 0.38
2 -0.72
3 0.07
4 0.88
5 0.93
6 0.35
7 0.54
8 -0.65
9 -0.7
10 0.36
32.29 # default right-hand-side value
10 # number of non-default right-hand-sides
1 0.38
2 -0.72
3 0.07
4 0.88
5 0.93
6 0.35
7 0.54
8 -0.65
9 -0.7
10 0.36
0.0 # default variable lower bound value
0 # number of non-default variable lower bounds
1.0 # default variable upper bound value
0 # number of non-default variable upper bounds
0.0 # default variable primal value in starting point
0 # number of non-default variable primal values in starting point
0.0 # default constraint dual value in starting point
0 # number of non-default constraint dual values in starting point
0.0 # default variable bound dual value in starting point
0 # number of non-default variable bound dual values in starting point
0 # number of non-default variable names
0 # number of non-default constraint names
